(declare-const X String)
; FTP\s+\x2FNFO\x2CRegistered\s+Server\s+www\x2Einternet-optimizer\x2Ecom
(assert (not (str.in_re X (re.++ (str.to_re "FTP") (re.+ (re.union (str.to_re " ") (str.to_re "\u{9}") (str.to_re "\u{a}") (str.to_re "\u{c}") (str.to_re "\u{d}"))) (str.to_re "/NFO,Registered") (re.+ (re.union (str.to_re " ") (str.to_re "\u{9}") (str.to_re "\u{a}") (str.to_re "\u{c}") (str.to_re "\u{d}"))) (str.to_re "Server") (re.+ (re.union (str.to_re " ") (str.to_re "\u{9}") (str.to_re "\u{a}") (str.to_re "\u{c}") (str.to_re "\u{d}"))) (str.to_re "www.internet-optimizer.com\u{a}")))))
; /filename=[^\n]*\x2ejnlp/i
(assert (not (str.in_re X (re.++ (str.to_re "/filename=") (re.* (re.comp (str.to_re "\u{a}"))) (str.to_re ".jnlp/i\u{a}")))))
; ^(([\w][\w\-\.]*)\.)?([\w][\w\-]+)(\.([\w][\w\.]*))?$
(assert (not (str.in_re X (re.++ (re.opt (re.++ (str.to_re ".") (re.union (re.range "0" "9") (re.range "A" "Z") (re.range "a" "z") (str.to_re "_")) (re.* (re.union (str.to_re "-") (str.to_re ".") (re.range "0" "9") (re.range "A" "Z") (re.range "a" "z") (str.to_re "_"))))) (re.opt (re.++ (str.to_re ".") (re.union (re.range "0" "9") (re.range "A" "Z") (re.range "a" "z") (str.to_re "_")) (re.* (re.union (str.to_re ".") (re.range "0" "9") (re.range "A" "Z") (re.range "a" "z") (str.to_re "_"))))) (str.to_re "\u{a}") (re.union (re.range "0" "9") (re.range "A" "Z") (re.range "a" "z") (str.to_re "_")) (re.+ (re.union (str.to_re "-") (re.range "0" "9") (re.range "A" "Z") (re.range "a" "z") (str.to_re "_")))))))
; vvvjkhmbgnbbw\x2fqbn\x28robert\x40blackcastlesoft\x2Ecom\x29
(assert (not (str.in_re X (str.to_re "vvvjkhmbgnbbw/qbn\u{1b}(robert@blackcastlesoft.com)\u{a}"))))
; /^range\x7c\d+\x7c\d+\x7C[a-z0-9]+\x2E[a-z]{2,3}\x7C[a-z0-9]+\x7C/
(assert (str.in_re X (re.++ (str.to_re "/range|") (re.+ (re.range "0" "9")) (str.to_re "|") (re.+ (re.range "0" "9")) (str.to_re "|") (re.+ (re.union (re.range "a" "z") (re.range "0" "9"))) (str.to_re ".") ((_ re.loop 2 3) (re.range "a" "z")) (str.to_re "|") (re.+ (re.union (re.range "a" "z") (re.range "0" "9"))) (str.to_re "|/\u{a}"))))
(check-sat)

(exit)
